3728511
48,17,114,212,201,170,169,86,168,161,177,225,121,22,198,38,2,176,118,43,183,90,109,144,188,26,27,54,39,107,16,96,28,194,119,151,6,182,117,215,174,186,44,165,178,67,45,199,226,213,142,110,175,88,21,208,219,204,191,214,74,150,19,101,100,8,25,115,200,125,41,40,221,99,104,137,7,136,143,49,93,106,33,77,210,95,34,35,36,209,195,4,5,229,76,157,179,37,46,47,224,158,66,42,156,126,206,68,69,10,9,50,162,80,87,185,11,228,129,61,154,149,141,140,189,55,23,139,146,31,70,73,71,111,116,59,192,85,135,97,166,171,148,65,53,52,18,124,103,153,64,202,211,91,127,32,216,3,102,20,89,120,160,1,218,128,223,108,145,217,187,84,123,29,14,15,63,152,227,155,12,222,193,180,207,30,147,60,56,57,58,220,24,92,79,181,81,167,78,172,173,130,105,98,203,94,133,164,163,72,75,138,122,131,205,112,159,13,190,83,51,113,197,196,184,0,134,132,62,82
